Linux optc-09-08 4.15.0-58-generic #64-Ubuntu SMP Tue Aug 6 11:12:41 UTC 2019 x86_64 x86_64 x86_64 GNU/Linux

top - 18:42:52 up 1 day,  8:43,  0 users,  load average: 1,00, 1,00, 1,00
Tasks: 298 gesamt,   1 laufend, 149 schlafend,   0 gestoppt,   0 Zombie
%CPU(s):  7,3 be,  0,2 sy,  0,0 ni, 92,5 un,  0,0 wa,  0,0 hi,  0,0 si,  0,0 st
KiB Spch : 97514992 gesamt, 91223752 frei,   648236 belegt,  5643008 Puff/Cache
KiB Swap:  8388604 gesamt,  8388604 frei,        0 belegt. 96119936 verfü Spch 

  PID USER      PR  NI    VIRT    RES    SHR S  %CPU %MEM     ZEIT+ BEFEHL
    1 root      20   0  233840   9364   6636 S   0,0  0,0   0:10.85 systemd
    2 root      20   0       0      0      0 S   0,0  0,0   0:00.12 kthreadd
    4 root       0 -20       0      0      0 I   0,0  0,0   0:00.00 kworker/0:+
    6 root      20   0       0      0      0 I   0,0  0,0   0:00.00 kworker/u3+
    7 root       0 -20       0      0      0 I   0,0  0,0   0:00.00 mm_percpu_+
    8 root      20   0       0      0      0 S   0,0  0,0   0:00.00 ksoftirqd/0
    9 root      20   0       0      0      0 I   0,0  0,0   0:11.21 rcu_sched
   10 root      20   0       0      0      0 I   0,0  0,0   0:00.00 rcu_bh

hard time limit: 04:10:00
hard mem limit: 55100

SLURM jobID: 2182424

@01 /nfs/optimi/kombadon/IP/miplib2017/savsched1.mps.gz ===========
-----------------------------
Do 22. Aug 18:42:52 CEST 2019
-----------------------------
@03 1566492172
@05 7200
SCIP version 6.0.0 [precision: 8 byte] [memory: block] [mode: optimized] [LP solver: CPLEX 12.8.0.0] [GitHash: 41ab6e0014]
Copyright (C) 2002-2018 Konrad-Zuse-Zentrum fuer Informationstechnik Berlin (ZIB)

External codes: 
  Readline 7.0         GNU library for command line editing (gnu.org/s/readline)
  CPLEX 12.8.0.0       Linear Programming Solver developed by IBM (www.cplex.com)
  CppAD 20180000.0     Algorithmic Differentiation of C++ algorithms developed by B. Bell (www.coin-or.org/CppAD)
  ZLIB 1.2.11          General purpose compression library by J. Gailly and M. Adler (zlib.net)
  GMP 6.1.2            GNU Multiple Precision Arithmetic Library developed by T. Granlund (gmplib.org)
  bliss 0.73p          Computing Graph Automorphism Groups by T. Junttila and P. Kaski (http://www.tcs.hut.fi/Software/bliss/)

user parameter file <scip.set> not found - using default parameters

SCIP> 
SCIP> set load /home/optimi/bzfhende/opti/scip-opti/check/../settings/enable_treeeprofile.set
loaded parameter file </home/optimi/bzfhende/opti/scip-opti/check/../settings/enable_treeprofile.set>
SCIP> set misc referencevalue 3217.7
misc/referencevalue = 3217.7
SCIP> set limits time 7200
limits/time = 7200
SCIP> set limits nodes 2100000000
limits/nodes = 2100000000
SCIP> set limits memory 50000
limits/memory = 50000
SCIP> set lp advanced threads 1
lp/threads = 1
SCIP> set timing clocktype 1
timing/clocktype = 1
SCIP> set display freq 10000
display/freq = 10000
SCIP> set memory savefac 1.0
memory/savefac = 1
SCIP> set save /home/optimi/bzfhende/opti/scip-opti/check/treesize.estimation.jouurnal.3/bzfhende.miplib2017.200_savsched1.scip.M640.enable_treeprofile.set
saved parameter file </home/optimi/bzfhende/opti/scip-opti/check/treesize.estimation.journal.3/bzfhende.miplib2017.200_savsched1.scip.M640.enable_treeprofile.set>
SCIP> read /nfs/optimi/kombadon/IP/miplib2017/savsched1.mps.gz

read problem </nfs/optimi/kombadon/IP/miplib2017/savsched1.mps.gz>
============

original problem has 328575 variables (252731 bin, 0 int, 0 impl, 75844 cont) and 295989 constraints
SCIP> display parameters

number of parameters = 2448
non-default parameter settings:
display/freq = 10000
limits/time = 7200
limits/nodes = 2100000000
limits/memory = 50000
lp/threads = 1
memory/savefac = 1
misc/referencevalue = 3217.7
presolving/maxrestarts = 0
estimates/profile/enabled = TRUE
estimates/profile/maxdepthfactor = 10
estimates/profile/freq = 0

SCIP> optimize

Activating tree profile data collection
presolving:
(round 1, fast)       36837 del vars, 6946 del conss, 0 add conss, 9 chg bounds, 0 chg sides, 0 chg coeffs, 0 upgd conss, 0 impls, 256735 clqs
(round 2, fast)       48454 del vars, 6981 del conss, 0 add conss, 9 chg bounds, 0 chg sides, 0 chg coeffs, 0 upgd conss, 0 impls, 256735 clqs
(round 3, fast)       48489 del vars, 6981 del conss, 0 add conss, 32180 chg bounds, 0 chg sides, 0 chg coeffs, 0 upgd conss, 0 impls, 256735 clqs
(round 4, exhaustive) 48489 del vars, 6981 del conss, 0 add conss, 32180 chg bounds, 0 chg sides, 0 chg coeffs, 277013 upgd conss, 0 impls, 256735 clqs
   (13.2s) probing: 51/268040 (0.0%) - 0 fixings, 0 aggregations, 0 implications, 0 bound changes
   (13.2s) probing aborted: 50/50 successive totally useless probings
presolving (5 rounds: 5 fast, 2 medium, 2 exhaustive):
 48541 deleted vars, 6981 deleted constraints, 0 added constraints, 32180 tightened bounds, 0 added holes, 0 changed sides, 83 changed coefficients
 0 implications, 256735 cliques
presolved problem has 280034 variables (247864 bin, 0 int, 32170 impl, 0 cont) and 289008 constraints
     33 constraints of type <knapsack>
 256735 constraints of type <setppc>
  11994 constraints of type <linear>
  20246 constraints of type <logicor>
transformed objective value is always integral (scale: 0.1)
Presolving Time: 12.69

 time | node  | left  |LP iter|LP it/n| mem |mdpt |frac |vars |cons |cols |rows |cuts |confs|strbr|  dualbound   | primalbound  |  gap   
Q48.0s|     1 |     0 |     0 |     - |1774M|   0 |   - | 280k| 289k| 280k| 289k|   0 |   0 |   0 |-8.011603e+05 | 4.587590e+04 |    Inf 
V 293s|     1 |     0 |  3412 |     - |6267M|   0 |   - | 280k| 289k| 280k| 289k|   0 |   1 |   0 |-8.011603e+05 | 3.184630e+04 |    Inf 
  774s|     1 |     0 |172177 |     - |6262M|   0 |  27k| 280k| 289k| 280k| 289k|   0 |   1 |   0 | 2.174036e+02 | 3.184630e+04 |  Large 
 1930s|     1 |     0 |299699 |     - |6327M|   0 |  24k| 280k| 289k| 280k| 289k| 400 |   1 |   0 | 2.249036e+02 | 3.184630e+04 |  Large 
 3308s|     1 |     0 |445112 |     - |6358M|   0 |  23k| 280k| 289k| 280k| 289k| 759 |   1 |   0 | 2.347917e+02 | 3.184630e+04 |  Large 
 3995s|     1 |     0 |530059 |     - |6459M|   0 |  21k| 280k| 289k| 280k| 290k|1708 |   1 |   0 | 2.720714e+02 | 3.184630e+04 |  Large 
 5784s|     1 |     0 |707153 |     - |6517M|   0 |  20k| 280k| 289k| 280k| 291k|2390 |   1 |   0 | 3.063084e+02 | 3.184630e+04 |  Large 
 7199s|     1 |     0 |844772 |     - |6553M|   0 |   - | 280k| 289k| 280k| 291k|2969 |   1 |   0 | 3.063084e+02 | 3.184630e+04 |  Large 
(node 1) LP solver hit time limit in LP 7 -- using pseudo solution instead

SCIP Status        : solving was interrupted [time limit reached]
Solving Time (sec) : 7198.68
Solving Nodes      : 1
Primal Bound       : +3.18463000000222e+04 (2 solutions)
Dual Bound         : +3.06308441580622e+02
Gap                : 10296.81 %

SCIP> display statistics

SCIP Status        : solving was interrupted [time limit reached]
Total Time         :    7200.11
  solving          :    7198.68
  presolving       :      12.69 (included in solving)
  reading          :       1.43
  copying          :       0.00 (0 times copied the problem)
Original Problem   :
  Problem name     : savsched1
  Variables        : 328575 (252731 binary, 0 integer, 0 implicit integer, 75844 continuous)
  Constraints      : 295989 initial, 295989 maximal
  Objective        : minimize, 75844 non-zeros (abs.min = 0.1, abs.max = 10)
Presolved Problem  :
  Problem name     : t_savsched1
  Variables        : 280034 (247864 binary, 0 integer, 32170 implicit integer, 0 continuous)
  Constraints      : 289008 initial, 289008 maximal
  Objective        : minimize, 279993 non-zeros (abs.min = 1, abs.max = 201)
Presolvers         :   ExecTime  SetupTime  Calls  FixedVars   AggrVars   ChgTypes  ChgBounds   AddHoles    DelCons    AddCons   ChgSides   ChgCoefs
  boundshift       :       0.00       0.00      0          0          0          0          0          0          0          0          0          0
  convertinttobin  :       0.00       0.00      0          0          0          0          0          0          0          0          0          0
  domcol           :       0.28       0.00      1          2          0          0          0          0          0          0          0          0
  dualagg          :       0.00       0.00      0          0          0          0          0          0          0          0          0          0
  dualcomp         :       0.00       0.00      0          0          0          0          0          0          0          0          0          0
  dualinfer        :       0.00       0.00      0          0          0          0          0          0          0          0          0          0
  gateextraction   :       0.25       0.00      1          0          0          0          0          0          0          0          0          0
  implics          :       0.01       0.00      2          0          0          0          0          0          0          0          0          0
  inttobinary      :       0.00       0.00      0          0          0          0          0          0          0          0          0          0
  qpkktref         :       0.00       0.00      0          0          0          0          0          0          0          0          0          0
  redvub           :       0.00       0.00      0          0          0          0          0          0          0          0          0          0
  sparsify         :       0.45       0.00      1          0          0          0          0          0          0          0          0          0
  stuffing         :       0.00       0.00      0          0          0          0          0          0          0          0          0          0
  symbreak         :       0.00       0.00      0          0          0          0          0          0          0          0          0          0
  symmetry         :       0.00       0.00      0          0          0          0          0          0          0          0          0          0
  trivial          :       0.06       0.00      5          0          0          0          0          0          0          0          0          0
  tworowbnd        :       0.00       0.00      0          0          0          0          0          0          0          0          0          0
  dualfix          :       0.08       0.00      5      11931          0          0          0          0          0          0          0          0
  genvbounds       :       0.00       0.00      0          0          0          0          0          0          0          0          0          0
  orbitalfixing    :       0.00       0.00      0          0          0          0          0          0          0          0          0          0
  probing          :       1.35       0.01      1          0          0          0          0          0          0          0          0          0
  pseudoobj        :       0.01       0.00      0          0          0          0          0          0          0          0          0          0
  vbounds          :       0.14       0.00      1          0          0          0          0          0          0          0          0          0
  knapsack         :       0.07       0.00      3          0          0          0          0          0          0          0          0         33
  setppc           :       0.76       0.04      3          0         49          0          0          0          0          0          0         49
  linear           :       2.51       0.30      7          0      36558          0      32180          0       6981          0          0          0
  logicor          :       5.68       0.01      3          1          0          0          0          0          0          0          0          1
  bounddisjunction :       0.00       0.00      0          0          0          0          0          0          0          0          0          0
  benders          :       0.00       0.00      0          0          0          0          0          0          0          0          0          0
  components       :       0.29       0.00      1          0          0          0          0          0          0          0          0          0
  root node        :          -          -      -          0          -          -          0          -          -          -          -          -
Constraints        :     Number  MaxNumber  #Separate #Propagate    #EnfoLP    #EnfoRelax  #EnfoPS    #Check   #ResProp    Cutoffs    DomReds       Cuts    Applied      Conss   Children
  benderslp        :          0          0          0          0          0          0          0         16          0          0          0          0          0          0          0
  integral         :          0          0          0          0          0          0          0         16          0          0          0          0          0          0          0
  knapsack         :         33         33          5     626567          0          0          0          6          0          0          0          0          0          0          0
  setppc           :     256735     256735          5     641380          0          0          0          5      26774          0          0          0          0          0          0
  linear           :      11994      11994          5     645730          0          0          0          4        434          0          0          0          0          0          0
  logicor          :      20246      20246          5     206473          0          0          0          2      19892          0          0          0          0          0          0
  bounddisjunction :          0+         1          0          0          0          0          0          0          0          0          0          0          0          0          0
  benders          :          0          0          0          0          0          0          0          3          0          0          0          0          0          0          0
  countsols        :          0          0          0          0          0          0          0          3          0          0          0          0          0          0          0
  components       :          0          0          0          0          0          0          0          0          0          0          0          0          0          0          0
Constraint Timings :  TotalTime  SetupTime   Separate  Propagate     EnfoLP     EnfoPS     EnfoRelax   Check    ResProp    SB-Prop
  benderslp        :       0.00       0.00       0.00       0.00       0.00       0.00       0.00       0.00       0.00       0.00
  integral         :       0.13       0.00       0.00       0.00       0.00       0.00       0.00       0.13       0.00       0.00
  knapsack         :       0.31       0.00       0.01       0.30       0.00       0.00       0.00       0.00       0.00       0.00
  setppc           :       1.84       0.04       0.22       1.48       0.00       0.00       0.00       0.09       0.01       0.00
  linear           :      18.47       0.30      17.30       0.86       0.00       0.00       0.00       0.00       0.01       0.00
  logicor          :       0.34       0.01       0.04       0.24       0.00       0.00       0.00       0.00       0.05       0.00
  bounddisjunction :       0.00       0.00       0.00       0.00       0.00       0.00       0.00       0.00       0.00       0.00
  benders          :       0.00       0.00       0.00       0.00       0.00       0.00       0.00       0.00       0.00       0.00
  countsols        :       0.00       0.00       0.00       0.00       0.00       0.00       0.00       0.00       0.00       0.00
  components       :       0.16       0.00       0.00       0.16       0.00       0.00       0.00       0.00       0.00       0.00
Propagators        : #Propagate   #ResProp    Cutoffs    DomReds
  dualfix          :          2          0          0          0
  genvbounds       :          0          0          0          0
  nlobbt           :          0          0          0          0
  obbt             :          0          0          0          0
  orbitalfixing    :          0          0          0          0
  probing          :          0          0          0          0
  pseudoobj        :          7          0          0          0
  redcost          :          5          0          0          0
  rootredcost      :          0          0          0          0
  vbounds          :     645679          0          0          0
Propagator Timings :  TotalTime  SetupTime   Presolve  Propagate    ResProp    SB-Prop
  dualfix          :       0.10       0.00       0.08       0.02       0.00       0.00
  genvbounds       :       0.21       0.00       0.00       0.21       0.00       0.00
  nlobbt           :       0.00       0.00       0.00       0.00       0.00       0.00
  obbt             :       0.00       0.00       0.00       0.00       0.00       0.00
  orbitalfixing    :       0.18       0.00       0.00       0.18       0.00       0.00
  probing          :       1.36       0.01       1.35       0.00       0.00       0.00
  pseudoobj        :       0.27       0.00       0.01       0.26       0.00       0.00
  redcost          :       0.35       0.00       0.00       0.35       0.00       0.00
  rootredcost      :       0.26       0.00       0.00       0.26       0.00       0.00
  vbounds          :       0.47       0.00       0.14       0.33       0.00       0.00
Conflict Analysis  :       Time      Calls    Success    DomReds  Conflicts   Literals    Reconvs ReconvLits   Dualrays   Nonzeros   LP Iters   (pool size: [--,--])
  propagation      :       0.00          0          0          -          0        0.0          0        0.0          -          -          -
  infeasible LP    :       0.00          0          0          -          0        0.0          0        0.0          0        0.0          0
  bound exceed. LP :     209.48          1          1          -       4379   126642.2          0        0.0          0        0.0         20
  strong branching :       0.00          0          0          -          0        0.0          0        0.0          -          -          0
  pseudo solution  :       0.00          0          0          -          0        0.0          0        0.0          -          -          -
  applied globally :       0.00          -          -          0          0        0.0          -          -          0          -          -
  applied locally  :          -          -          -          0          1    46942.0          -          -          0          -          -
Separators         :   ExecTime  SetupTime      Calls    Cutoffs    DomReds       Cuts    Applied      Conss
  cut pool         :       0.00                     9          -          -       3199          -          -    (maximal pool size: 4032)
  aggregation      :      10.22       0.00          5          0          0          0          0          0
  cgmip            :       0.00       0.00          0          0          0          0          0          0
  clique           :     205.33       0.00          5          0          0          0         29          0
  closecuts        :       0.00       0.00          0          0          0          0          0          0
  cmir             :       0.00       0.00          0          0          0          0          0          0
  convexproj       :       0.00       0.00          0          0          0          0          0          0
  disjunctive      :       0.00       0.00          0          0          0          0          0          0
  eccuts           :       0.00       0.00          0          0          0          0          0          0
  flowcover        :       0.00       0.00          0          0          0          0          0          0
  gauge            :       0.00       0.00          0          0          0          0          0          0
  gomory           :       0.74       0.00          5          0          0          0        707          0
  impliedbounds    :       0.10       0.00          5          0          0          0          0          0
  intobj           :       0.00       0.00          0          0          0          0          0          0
  mcf              :       1.50       0.00          1          0          0          0          0          0
  oddcycle         :       0.00       0.00          0          0          0          0          0          0
  rapidlearning    :       0.00       0.00          0          0          0          0          0          0
  strongcg         :       2.92       0.00          5          0          0          0       1756          0
  zerohalf         :      33.94       0.00          5          0          0          0        477          0
Pricers            :   ExecTime  SetupTime      Calls       Vars
  problem variables:       0.00          -          0          0
Branching Rules    :   ExecTime  SetupTime   BranchLP  BranchExt   BranchPS    Cutoffs    DomReds       Cuts      Conss   Children
  allfullstrong    :       0.00       0.00          0          0          0          0          0          0          0          0
  cloud            :       0.00       0.00          0          0          0          0          0          0          0          0
  distribution     :       0.00       0.00          0          0          0          0          0          0          0          0
  fullstrong       :       0.00       0.00          0          0          0          0          0          0          0          0
  inference        :       0.00       0.00          0          0          0          0          0          0          0          0
  leastinf         :       0.00       0.00          0          0          0          0          0          0          0          0
  lookahead        :       0.00       0.00          0          0          0          0          0          0          0          0
  mostinf          :       0.00       0.00          0          0          0          0          0          0          0          0
  multaggr         :       0.00       0.00          0          0          0          0          0          0          0          0
  nodereopt        :       0.00       0.00          0          0          0          0          0          0          0          0
  pscost           :       0.00       0.00          0          0          0          0          0          0          0          0
  random           :       0.00       0.00          0          0          0          0          0          0          0          0
  relpscost        :       0.00       0.00          0          0          0          0          0          0          0          0
Primal Heuristics  :   ExecTime  SetupTime      Calls      Found       Best
  LP solutions     :       0.00          -          -          0          0
  relax solutions  :       0.00          -          -          0          0
  pseudo solutions :       0.00          -          -          0          0
  strong branching :       0.00          -          -          0          0
  actconsdiving    :       0.00       0.00          0          0          0
  alns             :       0.00       0.00          0          0          0
  bound            :       0.00       0.00          0          0          0
  clique           :      34.27       0.00          1          1          1
  coefdiving       :       0.00       0.00          0          0          0
  completesol      :       0.00       0.00          0          0          0
  conflictdiving   :       0.00       0.00          0          0          0
  crossover        :       0.00       0.00          0          0          0
  dins             :       0.00       0.00          0          0          0
  distributiondivin:       0.00       0.00          0          0          0
  dualval          :       0.00       0.00          0          0          0
  farkasdiving     :       0.00       0.00          0          0          0
  feaspump         :       0.00       0.00          0          0          0
  fixandinfer      :       0.00       0.00          0          0          0
  fracdiving       :       0.00       0.00          0          0          0
  gins             :       0.00       0.00          0          0          0
  guideddiving     :       0.00       0.00          0          0          0
  indicator        :       0.00       0.00          0          0          0
  intdiving        :       0.00       0.00          0          0          0
  intshifting      :       0.00       0.00          0          0          0
  linesearchdiving :       0.00       0.00          0          0          0
  localbranching   :       0.00       0.00          0          0          0
  locks            :      30.91       0.00          1          0          0
  lpface           :       0.00       0.00          0          0          0
  mpec             :       0.00       0.00          0          0          0
  multistart       :       0.00       0.00          0          0          0
  mutation         :       0.00       0.00          0          0          0
  nlpdiving        :       0.00       0.00          0          0          0
  objpscostdiving  :       0.00       0.00          0          0          0
  octane           :       0.00       0.00          0          0          0
  ofins            :       0.00       0.00          0          0          0
  oneopt           :       0.20       0.00          1          0          0
  proximity        :       0.00       0.00          0          0          0
  pscostdiving     :       0.00       0.00          0          0          0
  randrounding     :       2.09       0.00          5          0          0
  rens             :       0.00       0.00          0          0          0
  reoptsols        :       0.00       0.00          0          0          0
  repair           :       0.00       0.00          0          0          0
  rins             :       0.00       0.00          0          0          0
  rootsoldiving    :       0.00       0.00          0          0          0
  rounding         :       0.10       0.00          5          0          0
  shiftandpropagate:       0.00       0.00          0          0          0
  shifting         :      17.68       0.00          5          0          0
  simplerounding   :       0.01       0.00          5          0          0
  subnlp           :       0.00       0.00          0          0          0
  trivial          :       0.48       0.00          2          0          0
  trivialnegation  :       0.00       0.00          0          0          0
  trysol           :       0.00       0.00          0          0          0
  twoopt           :       0.00       0.00          0          0          0
  undercover       :       0.00       0.00          0          0          0
  vbounds          :     215.76       0.00          1          1          1
  veclendiving     :       0.00       0.00          0          0          0
  zeroobj          :       0.00       0.00          0          0          0
  zirounding       :       0.00       0.00          0          0          0
  other solutions  :          -          -          -          0          -
Diving Statistics  :      Calls      Nodes   LP Iters Backtracks  Conflicts   MinDepth   MaxDepth   AvgDepth  RoundSols  NLeafSols  MinSolDpt  MaxSolDpt  AvgSolDpt
  actconsdiving    :          0          -          -          -          -          -          -          -          -          -          -          -          -
  coefdiving       :          0          -          -          -          -          -          -          -          -          -          -          -          -
  conflictdiving   :          0          -          -          -          -          -          -          -          -          -          -          -          -
  distributiondivin:          0          -          -          -          -          -          -          -          -          -          -          -          -
  farkasdiving     :          0          -          -          -          -          -          -          -          -          -          -          -          -
  fracdiving       :          0          -          -          -          -          -          -          -          -          -          -          -          -
  guideddiving     :          0          -          -          -          -          -          -          -          -          -          -          -          -
  linesearchdiving :          0          -          -          -          -          -          -          -          -          -          -          -          -
  pscostdiving     :          0          -          -          -          -          -          -          -          -          -          -          -          -
  veclendiving     :          0          -          -          -          -          -          -          -          -          -          -          -          -
Neighborhoods      :      Calls  SetupTime  SolveTime SolveNodes       Sols       Best       Exp3  EpsGreedy        UCB TgtFixRate  Opt  Inf Node Stal  Sol  Usr Othr Actv
  rens             :          0       0.00       0.00          0          0          0    0.00000   -1.00000    1.00000      0.900    0    0    0    0    0    0    0    1
  rins             :          0       0.00       0.00          0          0          0    0.00000   -1.00000    1.00000      0.900    0    0    0    0    0    0    0    1
  mutation         :          0       0.00       0.00          0          0          0    0.00000   -1.00000    1.00000      0.900    0    0    0    0    0    0    0    1
  localbranching   :          0       0.00       0.00          0          0          0    0.00000   -1.00000    1.00000      0.900    0    0    0    0    0    0    0    1
  crossover        :          0       0.00       0.00          0          0          0    0.00000   -1.00000    1.00000      0.900    0    0    0    0    0    0    0    1
  proximity        :          0       0.00       0.00          0          0          0    0.00000   -1.00000    1.00000      0.900    0    0    0    0    0    0    0    1
  zeroobjective    :          0       0.00       0.00          0          0          0    0.00000   -1.00000    1.00000      0.900    0    0    0    0    0    0    0    1
  dins             :          0       0.00       0.00          0          0          0    0.00000   -1.00000    1.00000      0.900    0    0    0    0    0    0    0    1
LP                 :       Time      Calls Iterations  Iter/call   Iter/sec  Time-0-It Calls-0-It    ItLimit
  primal LP        :       0.00          0          0       0.00          -       0.00          0
  dual LP          :    6610.72          6     841360  140226.67     127.27       0.00          0
  lex dual LP      :       0.00          0          0       0.00          -
  barrier LP       :       0.00          0          0       0.00          -       0.00          0
  resolve instable :       0.00          0          0       0.00          -
  diving/probing LP:       0.67          1       3412    3412.00    5092.54
  strong branching :       0.00          0          0       0.00          -          -          -          0
    (at root node) :          -          0          0       0.00          -
  conflict analysis:       0.13          2         20      10.00     153.85
B&B Tree           :
  number of runs   :          1
  nodes            :          1 (0 internal, 1 leaves)
  feasible leaves  :          0
  infeas. leaves   :          0
  objective leaves :          0
  nodes (total)    :          1 (0 internal, 1 leaves)
  nodes left       :          1
  max depth        :          0
  max depth (total):          0
  backtracks       :          0 (0.0%)
  early backtracks :          0 (0.0%)
  nodes exc. ref.  :          0 (0.0%)
  delayed cutoffs  :          0
  repropagations   :          0 (0 domain reductions, 0 cutoffs)
  avg switch length:       1.00
  switching time   :       0.00
Root Node          :
  First LP value   : +2.17403571450757e+02
  First LP Iters   :     168765 (352.28 Iter/sec)
  First LP Time    :     479.06
  Final Dual Bound : +3.06308441580622e+02
  Final Root Iters :     841360
  Root LP Estimate :                     -
Solution           :
  Solutions found  :          2 (2 improvements)
  First Solution   : +4.58759000000222e+04   (in run 1, after 1 nodes, 47.92 seconds, depth 28419, found by <clique>)
  Gap First Sol.   :   infinite
  Gap Last Sol.    :   infinite
  Primal Bound     : +3.18463000000222e+04   (in run 1, after 1 nodes, 293.10 seconds, depth 29544, found by <vbounds>)
  Dual Bound       : +3.06308441580622e+02
  Gap              :   10296.81 %
  Avg. Gap         :      99.28 % (714710.24 primal-dual integral)
  Tree Data        : 1 nodes (0 visited, 0 inner, 0 leaves, 1 open), progress: 0.0000
Tree Estimation    :       estim       value       trend  resolution      smooth
  wbe              :          -1           -           -           -           -
  tree profile     :          -1           -           -           -           -
  gap              :          -1     0.00000 999999999999999967336168804116691273849533185806555472917961779471295845921727862608739868455469056.00000           1 999999999999999967336168804116691273849533185806555472917961779471295845921727862608739868455469056
  progress         :          -1     0.00000 999999999999999967336168804116691273849533185806555472917961779471295845921727862608739868455469056.00000           1 999999999999999967336168804116691273849533185806555472917961779471295845921727862608739868455469056
  leaf-frequency   :          -1    -0.50000 999999999999999967336168804116691273849533185806555472917961779471295845921727862608739868455469056.00000           1 999999999999999967336168804116691273849533185806555472917961779471295845921727862608739868455469056
  ssg              :          -1     1.00000 999999999999999967336168804116691273849533185806555472917961779471295845921727862608739868455469056.00000           1 999999999999999967336168804116691273849533185806555472917961779471295845921727862608739868455469056
  open-nodes       :          -1     0.00000 999999999999999967336168804116691273849533185806555472917961779471295845921727862608739868455469056.00000           1 999999999999999967336168804116691273849533185806555472917961779471295845921727862608739868455469056

@04 1566499450
-----------------------------
Do 22. Aug 20:44:10 CEST 2019
-----------------------------

=ready=
